Traveling Salesman Problem/TSP_generados/Aleatorio1620391048_13.tsp
NAME: Aleatorio1620391048_13.tsp
COMMENT: Randomly generated scenario
TYPE: TSP
DIMENSION: 13
EDGE_WEIGHT_TYPE: ATT
NODE_COORD_SECTION
1 42.26 44.43
2 42.41 10.79
3 0.41 23.35
4 21.08 35.55
5 28.97 45.52
6 33.74 46.41
7 33.38 46.36
8 47.8 5.73
9 2.34 1.41
10 39.03 40.75
11 16.08 31.21
12 36.86 20.46
13 36.81 14.45
