Traveling Salesman Problem/TSP_generados/Aleatorio1620391048_13.opt.tour
NAME: Aleatorio1620391048_13.opt.tour
COMMENT: Optimal solution for Aleatorio1620391048_13 (163.55051751663873)
TYPE: TOUR
DIMENSION: 13
TOUR_SECTION
1 10 12 13 2 8 9 3 11 4 5 7 6
-1
EOF
